This file is generated by VASPKIT code
 1.000000
   34.8951430753533884    0.0000000000000000    0.0000000000000000
    0.0000000000000000   34.8951430753534311    0.0000000000000000
    0.0000000000000000    0.0000000000000000   34.8951430753534311
   Cs   Pb   Br
   216   216   648
Direct
    0.0833333333333333    0.0833333333333333    0.0833333333333333     Cs1
    0.0833333333333333    0.0833333333333333    0.2500000000000000     Cs2
    0.0833333333333333    0.0833333333333333    0.4166666666666666     Cs3
    0.0833333333333333    0.0833333333333333    0.5833333333333333     Cs4
    0.0833333333333333    0.0833333333333333    0.7500000000000000     Cs5
    0.0833333333333333    0.0833333333333333    0.9166666666666666     Cs6
    0.0833333333333333    0.2500000000000000    0.0833333333333333     Cs7
    0.0833333333333333    0.2500000000000000    0.2500000000000000     Cs8
    0.0833333333333333    0.2500000000000000    0.4166666666666666     Cs9
    0.0833333333333333    0.2500000000000000    0.5833333333333333    Cs10
    0.0833333333333333    0.2500000000000000    0.7500000000000000    Cs11
    0.0833333333333333    0.2500000000000000    0.9166666666666666    Cs12
    0.0833333333333333    0.4166666666666666    0.0833333333333333    Cs13
    0.0833333333333333    0.4166666666666666    0.2500000000000000    Cs14
    0.0833333333333333    0.4166666666666666    0.4166666666666666    Cs15
    0.0833333333333333    0.4166666666666666    0.5833333333333333    Cs16
    0.0833333333333333    0.4166666666666666    0.7500000000000000    Cs17
    0.0833333333333333    0.4166666666666666    0.9166666666666666    Cs18
    0.0833333333333333    0.5833333333333333    0.0833333333333333    Cs19
    0.0833333333333333    0.5833333333333333    0.2500000000000000    Cs20
    0.0833333333333333    0.5833333333333333    0.4166666666666666    Cs21
    0.0833333333333333    0.5833333333333333    0.5833333333333333    Cs22
    0.0833333333333333    0.5833333333333333    0.7500000000000000    Cs23
    0.0833333333333333    0.5833333333333333    0.9166666666666666    Cs24
    0.0833333333333333    0.7500000000000000    0.0833333333333333    Cs25
    0.0833333333333333    0.7500000000000000    0.2500000000000000    Cs26
    0.0833333333333333    0.7500000000000000    0.4166666666666666    Cs27
    0.0833333333333333    0.7500000000000000    0.5833333333333333    Cs28
    0.0833333333333333    0.7500000000000000    0.7500000000000000    Cs29
    0.0833333333333333    0.7500000000000000    0.9166666666666666    Cs30
    0.0833333333333333    0.9166666666666666    0.0833333333333333    Cs31
    0.0833333333333333    0.9166666666666666    0.2500000000000000    Cs32
    0.0833333333333333    0.9166666666666666    0.4166666666666666    Cs33
    0.0833333333333333    0.9166666666666666    0.5833333333333333    Cs34
    0.0833333333333333    0.9166666666666666    0.7500000000000000    Cs35
    0.0833333333333333    0.9166666666666666    0.9166666666666666    Cs36
    0.2500000000000000    0.0833333333333333    0.0833333333333333    Cs37
    0.2500000000000000    0.0833333333333333    0.2500000000000000    Cs38
    0.2500000000000000    0.0833333333333333    0.4166666666666666    Cs39
    0.2500000000000000    0.0833333333333333    0.5833333333333333    Cs40
    0.2500000000000000    0.0833333333333333    0.7500000000000000    Cs41
    0.2500000000000000    0.0833333333333333    0.9166666666666666    Cs42
    0.2500000000000000    0.2500000000000000    0.0833333333333333    Cs43
    0.2500000000000000    0.2500000000000000    0.2500000000000000    Cs44
    0.2500000000000000    0.2500000000000000    0.4166666666666666    Cs45
    0.2500000000000000    0.2500000000000000    0.5833333333333333    Cs46
    0.2500000000000000    0.2500000000000000    0.7500000000000000    Cs47
    0.2500000000000000    0.2500000000000000    0.9166666666666666    Cs48
    0.2500000000000000    0.4166666666666666    0.0833333333333333    Cs49
    0.2500000000000000    0.4166666666666666    0.2500000000000000    Cs50
    0.2500000000000000    0.4166666666666666    0.4166666666666666    Cs51
    0.2500000000000000    0.4166666666666666    0.5833333333333333    Cs52
    0.2500000000000000    0.4166666666666666    0.7500000000000000    Cs53
    0.2500000000000000    0.4166666666666666    0.9166666666666666    Cs54
    0.2500000000000000    0.5833333333333333    0.0833333333333333    Cs55
    0.2500000000000000    0.5833333333333333    0.2500000000000000    Cs56
    0.2500000000000000    0.5833333333333333    0.4166666666666666    Cs57
    0.2500000000000000    0.5833333333333333    0.5833333333333333    Cs58
    0.2500000000000000    0.5833333333333333    0.7500000000000000    Cs59
    0.2500000000000000    0.5833333333333333    0.9166666666666666    Cs60
    0.2500000000000000    0.7500000000000000    0.0833333333333333    Cs61
    0.2500000000000000    0.7500000000000000    0.2500000000000000    Cs62
    0.2500000000000000    0.7500000000000000    0.4166666666666666    Cs63
    0.2500000000000000    0.7500000000000000    0.5833333333333333    Cs64
    0.2500000000000000    0.7500000000000000    0.7500000000000000    Cs65
    0.2500000000000000    0.7500000000000000    0.9166666666666666    Cs66
    0.2500000000000000    0.9166666666666666    0.0833333333333333    Cs67
    0.2500000000000000    0.9166666666666666    0.2500000000000000    Cs68
    0.2500000000000000    0.9166666666666666    0.4166666666666666    Cs69
    0.2500000000000000    0.9166666666666666    0.5833333333333333    Cs70
    0.2500000000000000    0.9166666666666666    0.7500000000000000    Cs71
    0.2500000000000000    0.9166666666666666    0.9166666666666666    Cs72
    0.4166666666666666    0.0833333333333333    0.0833333333333333    Cs73
    0.4166666666666666    0.0833333333333333    0.2500000000000000    Cs74
    0.4166666666666666    0.0833333333333333    0.4166666666666666    Cs75
    0.4166666666666666    0.0833333333333333    0.5833333333333333    Cs76
    0.4166666666666666    0.0833333333333333    0.7500000000000000    Cs77
    0.4166666666666666    0.0833333333333333    0.9166666666666666    Cs78
    0.4166666666666666    0.2500000000000000    0.0833333333333333    Cs79
    0.4166666666666666    0.2500000000000000    0.2500000000000000    Cs80
    0.4166666666666666    0.2500000000000000    0.4166666666666666    Cs81
    0.4166666666666666    0.2500000000000000    0.5833333333333333    Cs82
    0.4166666666666666    0.2500000000000000    0.7500000000000000    Cs83
    0.4166666666666666    0.2500000000000000    0.9166666666666666    Cs84
    0.4166666666666666    0.4166666666666666    0.0833333333333333    Cs85
    0.4166666666666666    0.4166666666666666    0.2500000000000000    Cs86
    0.4166666666666666    0.4166666666666666    0.4166666666666666    Cs87
    0.4166666666666666    0.4166666666666666    0.5833333333333333    Cs88
    0.4166666666666666    0.4166666666666666    0.7500000000000000    Cs89
    0.4166666666666666    0.4166666666666666    0.9166666666666666    Cs90
    0.4166666666666666    0.5833333333333333    0.0833333333333333    Cs91
    0.4166666666666666    0.5833333333333333    0.2500000000000000    Cs92
    0.4166666666666666    0.5833333333333333    0.4166666666666666    Cs93
    0.4166666666666666    0.5833333333333333    0.5833333333333333    Cs94
    0.4166666666666666    0.5833333333333333    0.7500000000000000    Cs95
    0.4166666666666666    0.5833333333333333    0.9166666666666666    Cs96
    0.4166666666666666    0.7500000000000000    0.0833333333333333    Cs97
    0.4166666666666666    0.7500000000000000    0.2500000000000000    Cs98
    0.4166666666666666    0.7500000000000000    0.4166666666666666    Cs99
    0.4166666666666666    0.7500000000000000    0.5833333333333333   Cs100
    0.4166666666666666    0.7500000000000000    0.7500000000000000   Cs101
    0.4166666666666666    0.7500000000000000    0.9166666666666666   Cs102
    0.4166666666666666    0.9166666666666666    0.0833333333333333   Cs103
    0.4166666666666666    0.9166666666666666    0.2500000000000000   Cs104
    0.4166666666666666    0.9166666666666666    0.4166666666666666   Cs105
    0.4166666666666666    0.9166666666666666    0.5833333333333333   Cs106
    0.4166666666666666    0.9166666666666666    0.7500000000000000   Cs107
    0.4166666666666666    0.9166666666666666    0.9166666666666666   Cs108
    0.5833333333333333    0.0833333333333333    0.0833333333333333   Cs109
    0.5833333333333333    0.0833333333333333    0.2500000000000000   Cs110
    0.5833333333333333    0.0833333333333333    0.4166666666666666   Cs111
    0.5833333333333333    0.0833333333333333    0.5833333333333333   Cs112
    0.5833333333333333    0.0833333333333333    0.7500000000000000   Cs113
    0.5833333333333333    0.0833333333333333    0.9166666666666666   Cs114
    0.5833333333333333    0.2500000000000000    0.0833333333333333   Cs115
    0.5833333333333333    0.2500000000000000    0.2500000000000000   Cs116
    0.5833333333333333    0.2500000000000000    0.4166666666666666   Cs117
    0.5833333333333333    0.2500000000000000    0.5833333333333333   Cs118
    0.5833333333333333    0.2500000000000000    0.7500000000000000   Cs119
    0.5833333333333333    0.2500000000000000    0.9166666666666666   Cs120
    0.5833333333333333    0.4166666666666666    0.0833333333333333   Cs121
    0.5833333333333333    0.4166666666666666    0.2500000000000000   Cs122
    0.5833333333333333    0.4166666666666666    0.4166666666666666   Cs123
    0.5833333333333333    0.4166666666666666    0.5833333333333333   Cs124
    0.5833333333333333    0.4166666666666666    0.7500000000000000   Cs125
    0.5833333333333333    0.4166666666666666    0.9166666666666666   Cs126
    0.5833333333333333    0.5833333333333333    0.0833333333333333   Cs127
    0.5833333333333333    0.5833333333333333    0.2500000000000000   Cs128
    0.5833333333333333    0.5833333333333333    0.4166666666666666   Cs129
    0.5833333333333333    0.5833333333333333    0.5833333333333333   Cs130
    0.5833333333333333    0.5833333333333333    0.7500000000000000   Cs131
    0.5833333333333333    0.5833333333333333    0.9166666666666666   Cs132
    0.5833333333333333    0.7500000000000000    0.0833333333333333   Cs133
    0.5833333333333333    0.7500000000000000    0.2500000000000000   Cs134
    0.5833333333333333    0.7500000000000000    0.4166666666666666   Cs135
    0.5833333333333333    0.7500000000000000    0.5833333333333333   Cs136
    0.5833333333333333    0.7500000000000000    0.7500000000000000   Cs137
    0.5833333333333333    0.7500000000000000    0.9166666666666666   Cs138
    0.5833333333333333    0.9166666666666666    0.0833333333333333   Cs139
    0.5833333333333333    0.9166666666666666    0.2500000000000000   Cs140
    0.5833333333333333    0.9166666666666666    0.4166666666666666   Cs141
    0.5833333333333333    0.9166666666666666    0.5833333333333333   Cs142
    0.5833333333333333    0.9166666666666666    0.7500000000000000   Cs143
    0.5833333333333333    0.9166666666666666    0.9166666666666666   Cs144
    0.7500000000000000    0.0833333333333333    0.0833333333333333   Cs145
    0.7500000000000000    0.0833333333333333    0.2500000000000000   Cs146
    0.7500000000000000    0.0833333333333333    0.4166666666666666   Cs147
    0.7500000000000000    0.0833333333333333    0.5833333333333333   Cs148
    0.7500000000000000    0.0833333333333333    0.7500000000000000   Cs149
    0.7500000000000000    0.0833333333333333    0.9166666666666666   Cs150
    0.7500000000000000    0.2500000000000000    0.0833333333333333   Cs151
    0.7500000000000000    0.2500000000000000    0.2500000000000000   Cs152
    0.7500000000000000    0.2500000000000000    0.4166666666666666   Cs153
    0.7500000000000000    0.2500000000000000    0.5833333333333333   Cs154
    0.7500000000000000    0.2500000000000000    0.7500000000000000   Cs155
    0.7500000000000000    0.2500000000000000    0.9166666666666666   Cs156
    0.7500000000000000    0.4166666666666666    0.0833333333333333   Cs157
    0.7500000000000000    0.4166666666666666    0.2500000000000000   Cs158
    0.7500000000000000    0.4166666666666666    0.4166666666666666   Cs159
    0.7500000000000000    0.4166666666666666    0.5833333333333333   Cs160
    0.7500000000000000    0.4166666666666666    0.7500000000000000   Cs161
    0.7500000000000000    0.4166666666666666    0.9166666666666666   Cs162
    0.7500000000000000    0.5833333333333333    0.0833333333333333   Cs163
    0.7500000000000000    0.5833333333333333    0.2500000000000000   Cs164
    0.7500000000000000    0.5833333333333333    0.4166666666666666   Cs165
    0.7500000000000000    0.5833333333333333    0.5833333333333333   Cs166
    0.7500000000000000    0.5833333333333333    0.7500000000000000   Cs167
    0.7500000000000000    0.5833333333333333    0.9166666666666666   Cs168
    0.7500000000000000    0.7500000000000000    0.0833333333333333   Cs169
    0.7500000000000000    0.7500000000000000    0.2500000000000000   Cs170
    0.7500000000000000    0.7500000000000000    0.4166666666666666   Cs171
    0.7500000000000000    0.7500000000000000    0.5833333333333333   Cs172
    0.7500000000000000    0.7500000000000000    0.7500000000000000   Cs173
    0.7500000000000000    0.7500000000000000    0.9166666666666666   Cs174
    0.7500000000000000    0.9166666666666666    0.0833333333333333   Cs175
    0.7500000000000000    0.9166666666666666    0.2500000000000000   Cs176
    0.7500000000000000    0.9166666666666666    0.4166666666666666   Cs177
    0.7500000000000000    0.9166666666666666    0.5833333333333333   Cs178
    0.7500000000000000    0.9166666666666666    0.7500000000000000   Cs179
    0.7500000000000000    0.9166666666666666    0.9166666666666666   Cs180
    0.9166666666666666    0.0833333333333333    0.0833333333333333   Cs181
    0.9166666666666666    0.0833333333333333    0.2500000000000000   Cs182
    0.9166666666666666    0.0833333333333333    0.4166666666666666   Cs183
    0.9166666666666666    0.0833333333333333    0.5833333333333333   Cs184
    0.9166666666666666    0.0833333333333333    0.7500000000000000   Cs185
    0.9166666666666666    0.0833333333333333    0.9166666666666666   Cs186
    0.9166666666666666    0.2500000000000000    0.0833333333333333   Cs187
    0.9166666666666666    0.2500000000000000    0.2500000000000000   Cs188
    0.9166666666666666    0.2500000000000000    0.4166666666666666   Cs189
    0.9166666666666666    0.2500000000000000    0.5833333333333333   Cs190
    0.9166666666666666    0.2500000000000000    0.7500000000000000   Cs191
    0.9166666666666666    0.2500000000000000    0.9166666666666666   Cs192
    0.9166666666666666    0.4166666666666666    0.0833333333333333   Cs193
    0.9166666666666666    0.4166666666666666    0.2500000000000000   Cs194
    0.9166666666666666    0.4166666666666666    0.4166666666666666   Cs195
    0.9166666666666666    0.4166666666666666    0.5833333333333333   Cs196
    0.9166666666666666    0.4166666666666666    0.7500000000000000   Cs197
    0.9166666666666666    0.4166666666666666    0.9166666666666666   Cs198
    0.9166666666666666    0.5833333333333333    0.0833333333333333   Cs199
    0.9166666666666666    0.5833333333333333    0.2500000000000000   Cs200
    0.9166666666666666    0.5833333333333333    0.4166666666666666   Cs201
    0.9166666666666666    0.5833333333333333    0.5833333333333333   Cs202
    0.9166666666666666    0.5833333333333333    0.7500000000000000   Cs203
    0.9166666666666666    0.5833333333333333    0.9166666666666666   Cs204
    0.9166666666666666    0.7500000000000000    0.0833333333333333   Cs205
    0.9166666666666666    0.7500000000000000    0.2500000000000000   Cs206
    0.9166666666666666    0.7500000000000000    0.4166666666666666   Cs207
    0.9166666666666666    0.7500000000000000    0.5833333333333333   Cs208
    0.9166666666666666    0.7500000000000000    0.7500000000000000   Cs209
    0.9166666666666666    0.7500000000000000    0.9166666666666666   Cs210
    0.9166666666666666    0.9166666666666666    0.0833333333333333   Cs211
    0.9166666666666666    0.9166666666666666    0.2500000000000000   Cs212
    0.9166666666666666    0.9166666666666666    0.4166666666666666   Cs213
    0.9166666666666666    0.9166666666666666    0.5833333333333333   Cs214
    0.9166666666666666    0.9166666666666666    0.7500000000000000   Cs215
    0.9166666666666666    0.9166666666666666    0.9166666666666666   Cs216
    0.0000000000000000    0.0000000000000000    0.0000000000000000     Pb1
    0.0000000000000000    0.0000000000000000    0.1666666666666667     Pb2
    0.0000000000000000    0.0000000000000000    0.3333333333333333     Pb3
    0.0000000000000000    0.0000000000000000    0.5000000000000000     Pb4
    0.0000000000000000    0.0000000000000000    0.6666666666666666     Pb5
    0.0000000000000000    0.0000000000000000    0.8333333333333333     Pb6
    0.0000000000000000    0.1666666666666667    0.0000000000000000     Pb7
    0.0000000000000000    0.1666666666666667    0.1666666666666667     Pb8
    0.0000000000000000    0.1666666666666667    0.3333333333333333     Pb9
    0.0000000000000000    0.1666666666666667    0.5000000000000000    Pb10
    0.0000000000000000    0.1666666666666667    0.6666666666666666    Pb11
    0.0000000000000000    0.1666666666666667    0.8333333333333333    Pb12
    0.0000000000000000    0.3333333333333333    0.0000000000000000    Pb13
    0.0000000000000000    0.3333333333333333    0.1666666666666667    Pb14
    0.0000000000000000    0.3333333333333333    0.3333333333333333    Pb15
    0.0000000000000000    0.3333333333333333    0.5000000000000000    Pb16
    0.0000000000000000    0.3333333333333333    0.6666666666666666    Pb17
    0.0000000000000000    0.3333333333333333    0.8333333333333333    Pb18
    0.0000000000000000    0.5000000000000000    0.0000000000000000    Pb19
    0.0000000000000000    0.5000000000000000    0.1666666666666667    Pb20
    0.0000000000000000    0.5000000000000000    0.3333333333333333    Pb21
    0.0000000000000000    0.5000000000000000    0.5000000000000000    Pb22
    0.0000000000000000    0.5000000000000000    0.6666666666666666    Pb23
    0.0000000000000000    0.5000000000000000    0.8333333333333333    Pb24
    0.0000000000000000    0.6666666666666666    0.0000000000000000    Pb25
    0.0000000000000000    0.6666666666666666    0.1666666666666667    Pb26
    0.0000000000000000    0.6666666666666666    0.3333333333333333    Pb27
    0.0000000000000000    0.6666666666666666    0.5000000000000000    Pb28
    0.0000000000000000    0.6666666666666666    0.6666666666666666    Pb29
    0.0000000000000000    0.6666666666666666    0.8333333333333333    Pb30
    0.0000000000000000    0.8333333333333333    0.0000000000000000    Pb31
    0.0000000000000000    0.8333333333333333    0.1666666666666667    Pb32
    0.0000000000000000    0.8333333333333333    0.3333333333333333    Pb33
    0.0000000000000000    0.8333333333333333    0.5000000000000000    Pb34
    0.0000000000000000    0.8333333333333333    0.6666666666666666    Pb35
    0.0000000000000000    0.8333333333333333    0.8333333333333333    Pb36
    0.1666666666666667    0.0000000000000000    0.0000000000000000    Pb37
    0.1666666666666667    0.0000000000000000    0.1666666666666667    Pb38
    0.1666666666666667    0.0000000000000000    0.3333333333333333    Pb39
    0.1666666666666667    0.0000000000000000    0.5000000000000000    Pb40
    0.1666666666666667    0.0000000000000000    0.6666666666666666    Pb41
    0.1666666666666667    0.0000000000000000    0.8333333333333333    Pb42
    0.1666666666666667    0.1666666666666667    0.0000000000000000    Pb43
    0.1666666666666667    0.1666666666666667    0.1666666666666667    Pb44
    0.1666666666666667    0.1666666666666667    0.3333333333333333    Pb45
    0.1666666666666667    0.1666666666666667    0.5000000000000000    Pb46
    0.1666666666666667    0.1666666666666667    0.6666666666666666    Pb47
    0.1666666666666667    0.1666666666666667    0.8333333333333333    Pb48
    0.1666666666666667    0.3333333333333333    0.0000000000000000    Pb49
    0.1666666666666667    0.3333333333333333    0.1666666666666667    Pb50
    0.1666666666666667    0.3333333333333333    0.3333333333333333    Pb51
    0.1666666666666667    0.3333333333333333    0.5000000000000000    Pb52
    0.1666666666666667    0.3333333333333333    0.6666666666666666    Pb53
    0.1666666666666667    0.3333333333333333    0.8333333333333333    Pb54
    0.1666666666666667    0.5000000000000000    0.0000000000000000    Pb55
    0.1666666666666667    0.5000000000000000    0.1666666666666667    Pb56
    0.1666666666666667    0.5000000000000000    0.3333333333333333    Pb57
    0.1666666666666667    0.5000000000000000    0.5000000000000000    Pb58
    0.1666666666666667    0.5000000000000000    0.6666666666666666    Pb59
    0.1666666666666667    0.5000000000000000    0.8333333333333333    Pb60
    0.1666666666666667    0.6666666666666666    0.0000000000000000    Pb61
    0.1666666666666667    0.6666666666666666    0.1666666666666667    Pb62
    0.1666666666666667    0.6666666666666666    0.3333333333333333    Pb63
    0.1666666666666667    0.6666666666666666    0.5000000000000000    Pb64
    0.1666666666666667    0.6666666666666666    0.6666666666666666    Pb65
    0.1666666666666667    0.6666666666666666    0.8333333333333333    Pb66
    0.1666666666666667    0.8333333333333333    0.0000000000000000    Pb67
    0.1666666666666667    0.8333333333333333    0.1666666666666667    Pb68
    0.1666666666666667    0.8333333333333333    0.3333333333333333    Pb69
    0.1666666666666667    0.8333333333333333    0.5000000000000000    Pb70
    0.1666666666666667    0.8333333333333333    0.6666666666666666    Pb71
    0.1666666666666667    0.8333333333333333    0.8333333333333333    Pb72
    0.3333333333333333    0.0000000000000000    0.0000000000000000    Pb73
    0.3333333333333333    0.0000000000000000    0.1666666666666667    Pb74
    0.3333333333333333    0.0000000000000000    0.3333333333333333    Pb75
    0.3333333333333333    0.0000000000000000    0.5000000000000000    Pb76
    0.3333333333333333    0.0000000000000000    0.6666666666666666    Pb77
    0.3333333333333333    0.0000000000000000    0.8333333333333333    Pb78
    0.3333333333333333    0.1666666666666667    0.0000000000000000    Pb79
    0.3333333333333333    0.1666666666666667    0.1666666666666667    Pb80
    0.3333333333333333    0.1666666666666667    0.3333333333333333    Pb81
    0.3333333333333333    0.1666666666666667    0.5000000000000000    Pb82
    0.3333333333333333    0.1666666666666667    0.6666666666666666    Pb83
    0.3333333333333333    0.1666666666666667    0.8333333333333333    Pb84
    0.3333333333333333    0.3333333333333333    0.0000000000000000    Pb85
    0.3333333333333333    0.3333333333333333    0.1666666666666667    Pb86
    0.3333333333333333    0.3333333333333333    0.3333333333333333    Pb87
    0.3333333333333333    0.3333333333333333    0.5000000000000000    Pb88
    0.3333333333333333    0.3333333333333333    0.6666666666666666    Pb89
    0.3333333333333333    0.3333333333333333    0.8333333333333333    Pb90
    0.3333333333333333    0.5000000000000000    0.0000000000000000    Pb91
    0.3333333333333333    0.5000000000000000    0.1666666666666667    Pb92
    0.3333333333333333    0.5000000000000000    0.3333333333333333    Pb93
    0.3333333333333333    0.5000000000000000    0.5000000000000000    Pb94
    0.3333333333333333    0.5000000000000000    0.6666666666666666    Pb95
    0.3333333333333333    0.5000000000000000    0.8333333333333333    Pb96
    0.3333333333333333    0.6666666666666666    0.0000000000000000    Pb97
    0.3333333333333333    0.6666666666666666    0.1666666666666667    Pb98
    0.3333333333333333    0.6666666666666666    0.3333333333333333    Pb99
    0.3333333333333333    0.6666666666666666    0.5000000000000000   Pb100
    0.3333333333333333    0.6666666666666666    0.6666666666666666   Pb101
    0.3333333333333333    0.6666666666666666    0.8333333333333333   Pb102
    0.3333333333333333    0.8333333333333333    0.0000000000000000   Pb103
    0.3333333333333333    0.8333333333333333    0.1666666666666667   Pb104
    0.3333333333333333    0.8333333333333333    0.3333333333333333   Pb105
    0.3333333333333333    0.8333333333333333    0.5000000000000000   Pb106
    0.3333333333333333    0.8333333333333333    0.6666666666666666   Pb107
    0.3333333333333333    0.8333333333333333    0.8333333333333333   Pb108
    0.5000000000000000    0.0000000000000000    0.0000000000000000   Pb109
    0.5000000000000000    0.0000000000000000    0.1666666666666667   Pb110
    0.5000000000000000    0.0000000000000000    0.3333333333333333   Pb111
    0.5000000000000000    0.0000000000000000    0.5000000000000000   Pb112
    0.5000000000000000    0.0000000000000000    0.6666666666666666   Pb113
    0.5000000000000000    0.0000000000000000    0.8333333333333333   Pb114
    0.5000000000000000    0.1666666666666667    0.0000000000000000   Pb115
    0.5000000000000000    0.1666666666666667    0.1666666666666667   Pb116
    0.5000000000000000    0.1666666666666667    0.3333333333333333   Pb117
    0.5000000000000000    0.1666666666666667    0.5000000000000000   Pb118
    0.5000000000000000    0.1666666666666667    0.6666666666666666   Pb119
    0.5000000000000000    0.1666666666666667    0.8333333333333333   Pb120
    0.5000000000000000    0.3333333333333333    0.0000000000000000   Pb121
    0.5000000000000000    0.3333333333333333    0.1666666666666667   Pb122
    0.5000000000000000    0.3333333333333333    0.3333333333333333   Pb123
    0.5000000000000000    0.3333333333333333    0.5000000000000000   Pb124
    0.5000000000000000    0.3333333333333333    0.6666666666666666   Pb125
    0.5000000000000000    0.3333333333333333    0.8333333333333333   Pb126
    0.5000000000000000    0.5000000000000000    0.0000000000000000   Pb127
    0.5000000000000000    0.5000000000000000    0.1666666666666667   Pb128
    0.5000000000000000    0.5000000000000000    0.3333333333333333   Pb129
    0.5000000000000000    0.5000000000000000    0.5000000000000000   Pb130
    0.5000000000000000    0.5000000000000000    0.6666666666666666   Pb131
    0.5000000000000000    0.5000000000000000    0.8333333333333333   Pb132
    0.5000000000000000    0.6666666666666666    0.0000000000000000   Pb133
    0.5000000000000000    0.6666666666666666    0.1666666666666667   Pb134
    0.5000000000000000    0.6666666666666666    0.3333333333333333   Pb135
    0.5000000000000000    0.6666666666666666    0.5000000000000000   Pb136
    0.5000000000000000    0.6666666666666666    0.6666666666666666   Pb137
    0.5000000000000000    0.6666666666666666    0.8333333333333333   Pb138
    0.5000000000000000    0.8333333333333333    0.0000000000000000   Pb139
    0.5000000000000000    0.8333333333333333    0.1666666666666667   Pb140
    0.5000000000000000    0.8333333333333333    0.3333333333333333   Pb141
    0.5000000000000000    0.8333333333333333    0.5000000000000000   Pb142
    0.5000000000000000    0.8333333333333333    0.6666666666666666   Pb143
    0.5000000000000000    0.8333333333333333    0.8333333333333333   Pb144
    0.6666666666666666    0.0000000000000000    0.0000000000000000   Pb145
    0.6666666666666666    0.0000000000000000    0.1666666666666667   Pb146
    0.6666666666666666    0.0000000000000000    0.3333333333333333   Pb147
    0.6666666666666666    0.0000000000000000    0.5000000000000000   Pb148
    0.6666666666666666    0.0000000000000000    0.6666666666666666   Pb149
    0.6666666666666666    0.0000000000000000    0.8333333333333333   Pb150
    0.6666666666666666    0.1666666666666667    0.0000000000000000   Pb151
    0.6666666666666666    0.1666666666666667    0.1666666666666667   Pb152
    0.6666666666666666    0.1666666666666667    0.3333333333333333   Pb153
    0.6666666666666666    0.1666666666666667    0.5000000000000000   Pb154
    0.6666666666666666    0.1666666666666667    0.6666666666666666   Pb155
    0.6666666666666666    0.1666666666666667    0.8333333333333333   Pb156
    0.6666666666666666    0.3333333333333333    0.0000000000000000   Pb157
    0.6666666666666666    0.3333333333333333    0.1666666666666667   Pb158
    0.6666666666666666    0.3333333333333333    0.3333333333333333   Pb159
    0.6666666666666666    0.3333333333333333    0.5000000000000000   Pb160
    0.6666666666666666    0.3333333333333333    0.6666666666666666   Pb161
    0.6666666666666666    0.3333333333333333    0.8333333333333333   Pb162
    0.6666666666666666    0.5000000000000000    0.0000000000000000   Pb163
    0.6666666666666666    0.5000000000000000    0.1666666666666667   Pb164
    0.6666666666666666    0.5000000000000000    0.3333333333333333   Pb165
    0.6666666666666666    0.5000000000000000    0.5000000000000000   Pb166
    0.6666666666666666    0.5000000000000000    0.6666666666666666   Pb167
    0.6666666666666666    0.5000000000000000    0.8333333333333333   Pb168
    0.6666666666666666    0.6666666666666666    0.0000000000000000   Pb169
    0.6666666666666666    0.6666666666666666    0.1666666666666667   Pb170
    0.6666666666666666    0.6666666666666666    0.3333333333333333   Pb171
    0.6666666666666666    0.6666666666666666    0.5000000000000000   Pb172
    0.6666666666666666    0.6666666666666666    0.6666666666666666   Pb173
    0.6666666666666666    0.6666666666666666    0.8333333333333333   Pb174
    0.6666666666666666    0.8333333333333333    0.0000000000000000   Pb175
    0.6666666666666666    0.8333333333333333    0.1666666666666667   Pb176
    0.6666666666666666    0.8333333333333333    0.3333333333333333   Pb177
    0.6666666666666666    0.8333333333333333    0.5000000000000000   Pb178
    0.6666666666666666    0.8333333333333333    0.6666666666666666   Pb179
    0.6666666666666666    0.8333333333333333    0.8333333333333333   Pb180